NAME : portgen-30-101
COMMENT : portgen N=30, seed=101
TYPE : TSP
DIMENSION : 30
EDGE_WEIGHT_TYPE : EUC_2D
NODE_COORD_SECTION
1 2066 2333
2 935 1304
3 1270 200
4 1389 700
5 984 2810
6 2253 478
7 949 3025
8 87 2483
9 3094 1883
10 2706 3130
11 857 177
12 1270 1501
13 2782 2557
14 282 73
15 2097 1014
16 1913 299
17 2454 2605
18 2781 2118
19 2936 2843
20 3105 1962
21 2899 258
22 2574 2325
23 856 1857
24 807 1178
25 207 1072
26 643 2134
27 911 1256
28 75 1766
29 3041 1492
30 1686 2314
